NAME: 7TDVRP
COMMENT: 7 locations in Saratov (one of them is a store where goods are delivered from)
DIMENSION: 7
EDGE_WEIGHT_TYPE: EXPLICIT
EDGE_WEIGHT_FORMAT: UPPER_ROW 
DISPLAY_DATA_TYPE: TWOD_DISPLAY
EDGE_WEIGHT_SECTION
DISPLAY_DATA_SECTION


